109744
52,3,49,51,40,38,62,82,7,27,78,5,60,77,68,14,24,41,54,22,11,2,42,56,33,48,46,59,80,71,1,29,34,37,15,10,32,26,6,50,55,16,57,76,8,19,66,75,25,69,13,61,79,44,72,28,9,0,63,36,17,12,53,45,35,65,70,20,47,23,64,30,18,4,21,81,31,73,39,74,43,67,58
